p cnf 176 186               
-5 -23 55 0
-2 -1 -24 0
24 -26 0
1 2 -25 0
25 -26 0
26 -30 0
-4 -3 -27 0
27 -29 0
3 4 -28 0
28 -29 0
29 -30 0
-6 -5 -31 0
31 -35 0
-5 32 0
-6 32 0
5 6 -32 0
-32 -7 -33 0
33 -35 0
7 32 -34 0
34 -35 0
10 -39 0
-9 -8 -36 0
36 -38 0
8 9 -37 0
37 -38 0
38 -39 0
-12 -11 -40 0
-15 -14 -42 0
42 -46 0
-14 43 0
-15 43 0
14 15 -43 0
-43 -16 -44 0
44 -46 0
16 43 -45 0
45 -46 0
46 -52 0
-18 -17 -47 0
47 -51 0
-17 48 0
-18 48 0
17 18 -48 0
-48 -19 -49 0
49 -51 0
19 48 -50 0
50 -51 0
51 -52 0
-21 -20 -53 0
22 -58 0
20 21 -54 0
54 -58 0
58 -71 0
-7 -23 57 0
-57 -70 0
-57 68 0
6 -56 0
23 -56 0
-6 -23 56 0
-12 60 0
-21 60 0
-56 -60 65 0
-65 68 0
-68 56 -69 0
69 -70 0
70 -71 0
71 -80 0
13 -72 0
11 12 -41 0
41 -72 0
72 -80 0
1 -104 0
16 -87 0
18 -87 0
15 87 -94 0
94 -104 0
2 -107 0
15 -90 0
18 -90 0
18 -92 0
19 -92 0
90 92 -97 0
18 97 -102 0
102 -107 0
104 107 -110 0
-3 110 -115 0
115 -117 0
1 -105 0
15 -85 0
16 -85 0
16 -88 0
19 -88 0
85 88 -95 0
16 95 -100 0
100 -105 0
2 -108 0
19 87 -98 0
98 -108 0
105 108 -111 0
-4 111 -116 0
116 -117 0
-21 117 -118 0
118 -126 0
-21 -120 0
20 -120 0
21 -20 120 0
-12 -119 0
11 -119 0
12 -11 119 0
120 119 121 0
-8 -124 0
9 -124 0
-121 124 -125 0
125 -126 0
126 -130 0
-119 -120 127 0
-9 -128 0
8 -128 0
-127 128 -129 0
129 -130 0
130 -154 0
3 -134 0
94 -134 0
4 -137 0
102 -137 0
134 137 -140 0
-1 140 -142 0
142 -144 0
3 -135 0
100 -135 0
4 -138 0
98 -138 0
135 138 -141 0
-2 141 -143 0
143 -144 0
-12 144 -145 0
145 -149 0
120 -119 146 0
10 -123 0
21 -123 0
123 -147 0
124 -147 0
-146 147 -148 0
148 -149 0
149 -153 0
119 -120 150 0
10 -122 0
12 -122 0
122 -151 0
124 -151 0
-150 151 -152 0
152 -153 0
153 -154 0
-56 154 -155 0
155 -169 0
22 13 160 0
-160 -163 0
-13 -22 161 0
-161 10 -162 0
162 -163 0
163 -167 0
13 -22 165 0
-165 -166 0
22 -13 164 0
-164 -166 0
166 -167 0
-68 167 -168 0
168 -169 0
-19 -170 0
-18 -170 0
170 -175 0
16 -174 0
-15 -173 0
-14 -173 0
173 -174 0
174 -175 0
-55 0
23 0
30 0
35 0
39 0
40 0
52 0
53 0
80 0
169 0
175 0
